% más maquinas
n_jobs = 4;
n_machines = 4;
n_ops_for = [2, 3, 3, 2];
dur = array2d(1..4, 1..3, [
  5, 2, 0,
  3, 4, 2,
  4, 5, 6,
  6, 3, 0
]);
machine_for = array2d(1..4, 1..3, [
  1, 2, 0,
  2, 3, 4,
  3, 4, 1,
  4, 1, 0
]);
maint_start = [10, 0, 8, 12];
maint_end   = [12, 0, 10, 15];

